15
2 0 4
2 1 20
3 0 35
3 1 39
4 2 1
5 3 14
5 4 37
6 1 5
7 1 40
7 3 29
8 2 30
8 4 50
8 6 27
9 0 22
9 2 36
9 3 21
9 7 23
10 0 17
10 3 31
10 5 35
10 6 20
10 9 35
11 0 12
11 2 18
11 5 45
11 6 7
11 8 24
11 9 2
11 10 22
12 1 46
12 2 45
12 5 15
12 6 28
12 9 7
12 10 36
12 11 35
13 2 1
13 6 47
13 7 18
13 8 20
13 10 36
13 12 28
14 0 30
14 2 8
14 6 1
14 9 49
14 11 36
14 12 13
